p cnf 10 9
-1 2 -3 -4 -5 -6 -7 -8 -9 -10 0 
-1 3 -2 -4 -5 -6 -7 -8 -9 -10 0 
-1 4 -2 -3 -5 -6 -7 -8 -9 -10 0 
-1 5 -2 -3 -4 -6 -7 -8 -9 -10 0 
-1 6 -2 -3 -4 -5 -7 -8 -9 -10 0 
-1 7 -2 -3 -4 -5 -6 -8 -9 -10 0 
-1 8 -2 -3 -4 -5 -6 -7 -9 -10 0 
-1 9 -2 -3 -4 -5 -6 -7 -8 -10 0 
-1 10 -2 -3 -4 -5 -6 -7 -8 -9 0 
